100 500 10 200 10 100
61 128
26 166
61 165
73 74
31 47
46 107
74 175
18 150
80 52
19 14
63 44
58 89
40 149
14 34
30 91
55 129
98 177
16 64
45 183
52 23
16 176
39 75
37 115
93 121
84 12
49 184
21 40
92 112
77 30
70 159
21 183
78 142
49 194
84 122
27 168
30 28
39 120
30 138
59 108
35 182
41 173
42 191
71 81
19 35
46 60
98 12
57 93
46 23
76 162
60 84
71 113
80 117
92 17
66 57
76 124
45 69
83 69
76 165
27 195
17 41
28 196
37 88
96 30
51 187
56 80
27 156
43 16
81 37
60 160
37 172
54 179
22 44
66 111
43 200
37 190
99 173
17 139
46 95
26 195
37 185
13 16
15 79
14 55
33 79
86 56
70 131
49 81
29 116
70 187
50 132
28 189
68 13
91 176
54 108
17 22
96 66
53 54
20 63
87 84
38 148
